nNurses = 139;
nHours = 32;
minHours = 6;
maxHours = 18;
maxConsec = 15;
maxPresence = 18;
demand = [28, 26, 23, 23, 26, 26, 22, 22, 20, 18, 21, 23, 19, 17, 17, 22, 22, 25, 21, 16, 21, 18, 20, 21, 16, 11, 9, 7, 10, 8, 7, 10];
